param sigma
: 1   2 :=
1 0.00001 0.99999
2 0.10000 0.90000
3 0.20000 0.80000
4 0.30000 0.70000
5 0.40000 0.60000
6 0.50000 0.50000
7 0.90000 0.10000
8 0.80000 0.20000
9 0.70000 0.30000
10 0.60000 0.40000
11 0.99999 0.00001
;
set S:=
1 2 3 4 5 6 7 8 9 10 11 12 13 14 15 16 17 18 19 20 21 22 23 24 25 26 27 28 29 30 31 32 33 34 35 36 37 38 39 40 41 42 43 44 45 46 47 48 49 50 51 52 53 54 55 56 57 58 59 60 61 62 63 64 65 66 67 68 69 70 71 72 73 74 75 76 77 78 79 80 ;

set C:=
1 2 3 4 5 6 7 8 9 10 11 12 13 14 15 16 17 18 19 20 21 22 23 24 25 26 27 28 29 30 31 32 33 34 35 36 37 38 39 40 ;

set A:=
1_1 1_2 1_3 2_1 2_2 2_3 3_1 3_2 4_1 4_2 5_1 5_2 6_1 6_2 6_3 7_1 7_2 7_3 8_1 8_2 8_3 9_1 9_2 9_3 10_1 10_2 11_1 11_2 11_3 12_1 12_2 12_3 13_1 13_2 14_1 14_2 15_1 15_2 15_3 16_1 16_2 17_1 17_2 18_1 18_2 18_3 19_1 19_2 19_3 20_1 20_2 20_3 21_1 21_2 21_3 22_1 22_2 23_1 23_2 23_3 24_1 24_2 25_1 25_2 25_3 26_1 26_2 26_3 27_1 27_2 27_3 28_1 28_2 29_1 29_2 29_3 30_1 30_2 30_3 31_1 31_2 31_3 32_1 32_2 33_1 33_2 33_3 34_1 34_2 35_1 35_2 36_1 36_2 36_3 37_1 37_2 37_3 38_1 38_2 39_1 39_2 40_1 40_2 40_3 ;

set T:=
1_1_2 1_3_4 1_5_6 1_7_8 1_9_10 1_11_12 1_13_14 1_15_16 1_17_18 1_19_20
2_1_2 2_3_4 2_5_6 2_7_8 2_9_10 2_11_12 2_13_14 2_15_16 2_17_18 2_19_20
3_1_2 3_3_4 3_5_6 3_7_8 3_9_10 3_11_12 3_13_14 3_15_16 3_17_18 3_19_20
4_1_2 4_3_4 4_5_6 4_7_8 4_9_10 4_11_12 4_13_14 4_15_16 4_17_18 4_19_20
5_1_2 5_3_4 5_5_6 5_7_8 5_9_10 5_11_12 5_13_14 5_15_16 5_17_18 5_19_20
;

set R:=
1 2 3 4 5 6 7 8 9 10 11 12 13 14 15 16 17 18 19 20 ;

set Ac[1]:=
1_1 1_2 1_3 ;
set Ac[2]:=
2_1 2_2 2_3 ;
set Ac[3]:=
3_1 3_2 ;
set Ac[4]:=
4_1 4_2 ;
set Ac[5]:=
5_1 5_2 ;
set Ac[6]:=
6_1 6_2 6_3 ;
set Ac[7]:=
7_1 7_2 7_3 ;
set Ac[8]:=
8_1 8_2 8_3 ;
set Ac[9]:=
9_1 9_2 9_3 ;
set Ac[10]:=
10_1 10_2 ;
set Ac[11]:=
11_1 11_2 11_3 ;
set Ac[12]:=
12_1 12_2 12_3 ;
set Ac[13]:=
13_1 13_2 ;
set Ac[14]:=
14_1 14_2 ;
set Ac[15]:=
15_1 15_2 15_3 ;
set Ac[16]:=
16_1 16_2 ;
set Ac[17]:=
17_1 17_2 ;
set Ac[18]:=
18_1 18_2 18_3 ;
set Ac[19]:=
19_1 19_2 19_3 ;
set Ac[20]:=
20_1 20_2 20_3 ;
set Ac[21]:=
21_1 21_2 21_3 ;
set Ac[22]:=
22_1 22_2 ;
set Ac[23]:=
23_1 23_2 23_3 ;
set Ac[24]:=
24_1 24_2 ;
set Ac[25]:=
25_1 25_2 25_3 ;
set Ac[26]:=
26_1 26_2 26_3 ;
set Ac[27]:=
27_1 27_2 27_3 ;
set Ac[28]:=
28_1 28_2 ;
set Ac[29]:=
29_1 29_2 29_3 ;
set Ac[30]:=
30_1 30_2 30_3 ;
set Ac[31]:=
31_1 31_2 31_3 ;
set Ac[32]:=
32_1 32_2 ;
set Ac[33]:=
33_1 33_2 33_3 ;
set Ac[34]:=
34_1 34_2 ;
set Ac[35]:=
35_1 35_2 ;
set Ac[36]:=
36_1 36_2 36_3 ;
set Ac[37]:=
37_1 37_2 37_3 ;
set Ac[38]:=
38_1 38_2 ;
set Ac[39]:=
39_1 39_2 ;
set Ac[40]:=
40_1 40_2 40_3 ;

set Cs[1]:=
3 8 9 10 14 25 34 35 ;
set Cs[2]:=
2 4 13 14 18 20 27 29 30 37 ;
set Cs[3]:=
1 15 19 20 30 33 36 ;
set Cs[4]:=
8 10 16 22 25 35 ;
set Cs[5]:=
7 30 34 36 ;
set Cs[6]:=
5 12 15 16 18 21 22 34 35 39 ;
set Cs[7]:=
11 14 31 36 ;
set Cs[8]:=
4 18 38 40 ;
set Cs[9]:=
6 10 13 22 23 24 29 31 36 ;
set Cs[10]:=
9 12 26 28 29 30 40 ;
set Cs[11]:=
11 21 24 25 ;
set Cs[12]:=
1 2 8 12 13 14 17 20 24 40 ;
set Cs[13]:=
2 12 13 16 23 28 31 32 37 ;
set Cs[14]:=
3 4 12 13 16 24 25 34 36 39 ;
set Cs[15]:=
8 13 20 24 28 ;
set Cs[16]:=
10 14 21 26 ;
set Cs[17]:=
9 19 21 27 31 40 ;
set Cs[18]:=
1 11 16 26 34 40 ;
set Cs[19]:=
1 2 7 8 13 21 26 28 40 ;
set Cs[20]:=
3 6 7 12 20 30 32 37 39 ;
set Cs[21]:=
4 8 15 18 21 22 24 25 35 ;
set Cs[22]:=
7 20 22 23 30 31 36 ;
set Cs[23]:=
3 8 10 18 32 33 38 ;
set Cs[24]:=
10 12 13 16 19 23 24 25 ;
set Cs[25]:=
14 15 22 23 28 29 39 ;
set Cs[26]:=
2 11 17 25 ;
set Cs[27]:=
2 3 8 21 22 28 32 33 38 ;
set Cs[28]:=
5 14 15 18 20 21 23 39 ;
set Cs[29]:=
18 21 23 25 29 36 ;
set Cs[30]:=
11 13 29 35 40 ;
set Cs[31]:=
6 9 29 33 35 ;
set Cs[32]:=
1 2 7 18 20 21 24 31 ;
set Cs[33]:=
11 18 20 23 24 38 39 40 ;
set Cs[34]:=
2 5 7 8 14 31 36 ;
set Cs[35]:=
1 8 12 20 21 33 ;
set Cs[36]:=
3 9 13 20 22 25 31 ;
set Cs[37]:=
1 8 14 19 21 26 34 36 37 39 ;
set Cs[38]:=
6 7 8 14 31 33 37 38 ;
set Cs[39]:=
1 5 6 16 20 24 27 29 33 38 ;
set Cs[40]:=
1 6 11 14 19 24 33 ;
set Cs[41]:=
18 20 32 39 ;
set Cs[42]:=
1 6 8 12 17 19 21 30 ;
set Cs[43]:=
7 12 19 23 25 34 37 ;
set Cs[44]:=
12 27 39 40 ;
set Cs[45]:=
1 4 5 6 7 9 15 18 22 32 ;
set Cs[46]:=
7 9 16 20 24 30 33 34 38 39 ;
set Cs[47]:=
18 27 34 36 ;
set Cs[48]:=
5 7 9 16 18 21 29 31 33 40 ;
set Cs[49]:=
5 6 8 15 23 27 38 ;
set Cs[50]:=
1 6 11 29 31 33 34 ;
set Cs[51]:=
11 13 14 23 24 37 ;
set Cs[52]:=
4 30 34 39 ;
set Cs[53]:=
6 13 20 29 32 33 35 39 ;
set Cs[54]:=
2 10 13 19 27 28 38 ;
set Cs[55]:=
1 3 5 10 11 28 29 30 36 ;
set Cs[56]:=
9 23 26 27 32 37 ;
set Cs[57]:=
7 12 13 18 25 29 33 36 40 ;
set Cs[58]:=
2 6 10 16 17 27 28 30 37 ;
set Cs[59]:=
4 6 11 18 23 29 35 36 40 ;
set Cs[60]:=
3 4 10 15 19 23 26 ;
set Cs[61]:=
13 30 36 38 ;
set Cs[62]:=
2 8 9 18 ;
set Cs[63]:=
5 15 20 21 36 37 40 ;
set Cs[64]:=
5 10 23 28 ;
set Cs[65]:=
14 16 30 31 ;
set Cs[66]:=
1 6 7 8 15 16 22 23 36 38 ;
set Cs[67]:=
2 5 7 12 17 21 26 33 35 40 ;
set Cs[68]:=
11 18 19 38 ;
set Cs[69]:=
1 15 16 29 36 38 ;
set Cs[70]:=
3 4 13 19 21 25 33 38 ;
set Cs[71]:=
22 34 36 39 ;
set Cs[72]:=
2 10 12 13 26 32 38 39 ;
set Cs[73]:=
9 13 15 39 ;
set Cs[74]:=
6 18 20 38 ;
set Cs[75]:=
20 23 24 28 29 30 31 34 ;
set Cs[76]:=
1 3 4 14 15 19 25 30 34 36 ;
set Cs[77]:=
1 7 8 23 34 36 ;
set Cs[78]:=
1 2 7 10 15 24 36 38 ;
set Cs[79]:=
19 29 30 31 32 ;
set Cs[80]:=
3 10 12 16 26 28 34 37 38 39 ;

set Ra[1_1]:=
1 2 4 5 8 9 10 12 14 16 17 19 20 ;
set Ra[1_2]:=
2 3 4 5 7 8 9 11 12 18 19 ;
set Ra[1_3]:=
1 2 5 6 8 11 12 14 17 ;
set Ra[2_1]:=
6 10 18 ;
set Ra[2_2]:=
4 6 10 18 ;
set Ra[2_3]:=
14 17 ;
set Ra[3_1]:=
1 3 6 13 16 19 20 ;
set Ra[3_2]:=
1 2 3 4 5 8 9 12 14 18 ;
set Ra[4_1]:=
1 4 7 10 11 12 14 15 17 19 ;
set Ra[4_2]:=
1 3 7 12 14 16 17 18 ;
set Ra[5_1]:=
9 15 19 20 ;
set Ra[5_2]:=
1 2 9 15 20 ;
set Ra[6_1]:=
2 4 6 8 13 14 16 17 19 20 ;
set Ra[6_2]:=
3 8 10 12 14 15 16 17 20 ;
set Ra[6_3]:=
1 6 10 11 ;
set Ra[7_1]:=
2 6 20 ;
set Ra[7_2]:=
2 4 5 8 9 10 12 13 14 15 16 17 18 ;
set Ra[7_3]:=
3 4 5 6 9 12 13 16 17 18 20 ;
set Ra[8_1]:=
20 ;
set Ra[8_2]:=
1 3 4 8 9 ;
set Ra[8_3]:=
2 4 5 13 18 ;
set Ra[9_1]:=
3 4 6 7 11 12 15 17 ;
set Ra[9_2]:=
4 6 7 9 15 16 17 ;
set Ra[9_3]:=
2 3 7 8 10 11 12 13 19 ;
set Ra[10_1]:=
1 2 5 7 8 10 11 13 14 15 18 ;
set Ra[10_2]:=
1 5 6 11 12 13 14 17 18 ;
set Ra[11_1]:=
17 18 ;
set Ra[11_2]:=
10 14 15 16 18 ;
set Ra[11_3]:=
1 7 13 14 17 ;
set Ra[12_1]:=
9 10 12 14 17 ;
set Ra[12_2]:=
1 7 10 11 13 14 15 ;
set Ra[12_3]:=
2 5 6 9 11 16 18 19 ;
set Ra[13_1]:=
1 3 4 5 8 13 14 15 18 19 ;
set Ra[13_2]:=
2 3 9 11 13 15 ;
set Ra[14_1]:=
1 2 5 20 ;
set Ra[14_2]:=
16 20 ;
set Ra[15_1]:=
15 16 17 18 19 20 ;
set Ra[15_2]:=
2 4 8 11 15 16 17 ;
set Ra[15_3]:=
5 6 7 11 12 14 16 ;
set Ra[16_1]:=
10 ;
set Ra[16_2]:=
2 11 14 ;
set Ra[17_1]:=
6 8 ;
set Ra[17_2]:=
5 8 11 18 20 ;
set Ra[18_1]:=
2 3 5 6 9 10 12 20 ;
set Ra[18_2]:=
2 3 6 ;
set Ra[18_3]:=
1 4 5 6 7 20 ;
set Ra[19_1]:=
1 2 9 10 13 19 ;
set Ra[19_2]:=
3 4 6 10 13 14 16 19 20 ;
set Ra[19_3]:=
3 4 5 8 10 11 14 15 16 17 18 ;
set Ra[20_1]:=
12 17 18 ;
set Ra[20_2]:=
2 3 9 15 17 ;
set Ra[20_3]:=
3 8 11 14 16 17 18 19 20 ;
set Ra[21_1]:=
4 6 7 10 11 12 13 14 16 18 20 ;
set Ra[21_2]:=
2 3 4 11 12 19 20 ;
set Ra[21_3]:=
1 3 4 6 9 11 12 16 18 ;
set Ra[22_1]:=
4 6 7 8 10 14 16 18 19 ;
set Ra[22_2]:=
8 15 ;
set Ra[23_1]:=
17 18 ;
set Ra[23_2]:=
7 15 ;
set Ra[23_3]:=
3 5 7 8 9 10 11 13 14 15 16 17 ;
set Ra[24_1]:=
1 4 5 6 14 16 18 20 ;
set Ra[24_2]:=
4 5 7 8 9 ;
set Ra[25_1]:=
5 7 9 14 17 19 ;
set Ra[25_2]:=
7 10 12 14 ;
set Ra[25_3]:=
1 5 14 19 ;
set Ra[26_1]:=
2 3 7 13 14 16 18 19 20 ;
set Ra[26_2]:=
1 2 4 5 8 9 10 14 20 ;
set Ra[26_3]:=
3 12 ;
set Ra[27_1]:=
1 5 11 12 14 15 ;
set Ra[27_2]:=
4 7 9 10 11 12 14 15 16 17 18 20 ;
set Ra[27_3]:=
8 ;
set Ra[28_1]:=
5 ;
set Ra[28_2]:=
1 2 5 6 9 10 12 13 14 15 ;
set Ra[29_1]:=
13 ;
set Ra[29_2]:=
17 18 19 ;
set Ra[29_3]:=
1 2 5 6 7 8 9 11 12 13 14 17 18 ;
set Ra[30_1]:=
1 2 4 5 6 7 9 14 15 16 18 19 20 ;
set Ra[30_2]:=
1 2 3 4 9 14 18 19 ;
set Ra[30_3]:=
5 10 14 ;
set Ra[31_1]:=
1 2 16 17 ;
set Ra[31_2]:=
1 2 4 10 14 ;
set Ra[31_3]:=
1 4 6 7 9 11 13 14 15 16 20 ;
set Ra[32_1]:=
2 4 17 ;
set Ra[32_2]:=
3 5 6 9 10 11 12 13 14 16 17 19 ;
set Ra[33_1]:=
5 8 11 13 14 15 16 ;
set Ra[33_2]:=
2 6 9 10 11 13 15 18 20 ;
set Ra[33_3]:=
1 5 9 11 15 16 17 ;
set Ra[34_1]:=
3 5 7 10 13 14 15 16 18 19 20 ;
set Ra[34_2]:=
3 4 10 13 15 16 17 18 20 ;
set Ra[35_1]:=
4 5 8 11 12 13 15 17 20 ;
set Ra[35_2]:=
1 2 7 9 18 20 ;
set Ra[36_1]:=
2 3 4 6 7 10 11 18 20 ;
set Ra[36_2]:=
1 2 3 7 8 13 14 19 ;
set Ra[36_3]:=
4 19 ;
set Ra[37_1]:=
1 2 3 4 5 8 9 13 17 19 20 ;
set Ra[37_2]:=
5 8 9 11 15 18 19 20 ;
set Ra[37_3]:=
2 12 13 14 18 19 ;
set Ra[38_1]:=
12 15 ;
set Ra[38_2]:=
1 ;
set Ra[39_1]:=
15 19 20 ;
set Ra[39_2]:=
1 4 8 9 13 17 ;
set Ra[40_1]:=
1 2 6 11 12 13 14 ;
set Ra[40_2]:=
4 5 6 11 13 14 15 18 19 20 ;
set Ra[40_3]:=
1 2 4 5 7 8 9 15 ;

set Ts[1]:=
1_7_8 2_5_6 2_7_8 2_9_10 2_11_12 2_19_20 3_1_2 3_3_4 3_9_10 4_7_8 4_15_16 5_3_4 ;
set Ts[2]:=
1_5_6 1_17_18 2_3_4 2_5_6 2_7_8 2_11_12 2_15_16 3_1_2 3_3_4 3_7_8 4_3_4 4_5_6 4_7_8 5_7_8 5_15_16 ;
set Ts[3]:=
1_3_4 1_5_6 2_5_6 2_9_10 2_11_12 3_1_2 3_9_10 3_11_12 4_11_12 4_13_14 5_5_6 5_15_16 ;
set Ts[4]:=
1_1_2 2_11_12 3_15_16 4_1_2 5_1_2 ;
set Ts[5]:=
1_1_2 1_3_4 2_9_10 3_3_4 3_7_8 3_19_20 5_9_10 5_17_18 ;
set Ts[6]:=
1_7_8 1_9_10 1_11_12 1_19_20 4_17_18 4_19_20 5_1_2 5_5_6 5_13_14 ;
set Ts[7]:=
1_1_2 1_9_10 2_19_20 3_5_6 3_7_8 3_11_12 3_13_14 3_17_18 5_5_6 5_11_12 5_15_16 ;
set Ts[8]:=
1_11_12 1_13_14 3_1_2 3_11_12 5_1_2 ;
set Ts[9]:=
1_9_10 1_11_12 3_3_4 4_13_14 ;
set Ts[10]:=
2_1_2 2_5_6 3_15_16 4_3_4 4_11_12 4_13_14 5_1_2 5_3_4 5_9_10 5_11_12 5_15_16 ;
set Ts[11]:=
3_3_4 4_1_2 5_3_4 5_15_16 ;
set Ts[12]:=
1_5_6 1_11_12 1_13_14 1_15_16 1_19_20 2_1_2 2_7_8 2_13_14 2_17_18 3_15_16 3_19_20 4_7_8 5_3_4 5_11_12 ;
set Ts[13]:=
1_1_2 1_13_14 2_1_2 2_3_4 4_7_8 4_13_14 5_5_6 5_13_14 ;
set Ts[14]:=
2_19_20 3_3_4 4_7_8 ;
set Ts[15]:=
1_11_12 1_15_16 2_13_14 2_15_16 3_7_8 4_3_4 4_5_6 4_11_12 4_13_14 4_17_18 5_1_2 5_5_6 5_11_12 ;
set Ts[16]:=
1_9_10 1_13_14 1_19_20 2_1_2 2_3_4 2_5_6 2_15_16 3_3_4 3_9_10 5_5_6 5_11_12 ;
set Ts[17]:=
1_3_4 1_11_12 1_13_14 1_17_18 2_9_10 3_17_18 4_1_2 4_11_12 4_13_14 5_17_18 ;
set Ts[18]:=
1_5_6 1_17_18 2_13_14 3_11_12 3_17_18 ;
set Ts[19]:=
1_7_8 1_19_20 2_3_4 2_7_8 2_11_12 2_19_20 3_1_2 3_5_6 3_9_10 3_13_14 3_17_18 3_19_20 4_19_20 ;
set Ts[20]:=
1_9_10 1_17_18 2_3_4 2_11_12 3_3_4 3_9_10 4_7_8 5_1_2 ;
set Ts[21]:=
1_3_4 2_9_10 2_15_16 3_11_12 4_17_18 4_19_20 5_9_10 5_11_12 5_17_18 ;
set Ts[22]:=
1_9_10 1_11_12 1_17_18 2_1_2 2_15_16 3_1_2 3_5_6 3_11_12 3_17_18 4_5_6 4_9_10 4_19_20 5_1_2 ;
set Ts[23]:=
1_5_6 1_9_10 1_13_14 1_19_20 2_11_12 2_13_14 2_17_18 2_19_20 3_3_4 3_5_6 3_19_20 4_3_4 4_7_8 4_13_14 4_15_16 ;
set Ts[24]:=
1_1_2 1_7_8 1_13_14 2_5_6 2_19_20 3_7_8 3_11_12 3_13_14 4_5_6 4_9_10 4_11_12 4_15_16 5_7_8 5_15_16 ;
set Ts[25]:=
1_11_12 1_15_16 4_3_4 4_15_16 5_3_4 5_7_8 5_17_18 ;
set Ts[26]:=
1_1_2 2_5_6 2_19_20 3_9_10 4_5_6 4_15_16 5_3_4 5_15_16 ;
set Ts[27]:=
1_1_2 1_11_12 1_13_14 2_19_20 3_1_2 3_7_8 3_19_20 4_13_14 5_15_16 ;
set Ts[28]:=
1_1_2 1_7_8 1_17_18 2_1_2 2_3_4 2_17_18 3_15_16 3_17_18 5_17_18 5_19_20 ;
set Ts[29]:=
2_7_8 3_7_8 5_19_20 ;
set Ts[30]:=
1_11_12 1_15_16 1_17_18 2_1_2 2_15_16 2_17_18 3_19_20 4_15_16 4_19_20 5_9_10 5_15_16 5_17_18 ;
set Ts[31]:=
1_1_2 1_11_12 2_7_8 2_17_18 3_19_20 4_9_10 4_13_14 5_7_8 5_9_10 5_11_12 ;
set Ts[32]:=
1_3_4 1_15_16 2_7_8 2_17_18 2_19_20 3_5_6 3_7_8 3_17_18 4_7_8 4_13_14 4_17_18 5_15_16 5_17_18 ;
set Ts[33]:=
1_1_2 1_5_6 1_15_16 1_17_18 2_5_6 2_9_10 3_1_2 3_7_8 4_1_2 4_5_6 5_3_4 5_7_8 ;
set Ts[34]:=
1_1_2 1_19_20 2_3_4 2_11_12 4_7_8 5_1_2 5_11_12 ;
set Ts[35]:=
1_3_4 1_11_12 1_19_20 3_19_20 4_13_14 5_1_2 5_9_10 ;
set Ts[36]:=
1_1_2 1_9_10 2_7_8 3_13_14 4_3_4 4_11_12 4_13_14 4_19_20 5_7_8 5_15_16 5_17_18 ;
set Ts[37]:=
1_1_2 1_15_16 1_19_20 2_15_16 2_17_18 3_1_2 3_3_4 3_5_6 3_9_10 3_11_12 3_19_20 4_11_12 4_19_20 5_7_8 5_15_16 ;
set Ts[38]:=
1_7_8 4_9_10 4_15_16 4_17_18 5_9_10 5_17_18 ;
set Ts[39]:=
1_1_2 1_3_4 1_5_6 1_11_12 2_1_2 2_3_4 2_5_6 2_19_20 3_7_8 4_13_14 4_19_20 5_9_10 5_19_20 ;
set Ts[40]:=
1_7_8 2_19_20 3_3_4 3_19_20 4_1_2 4_15_16 5_13_14 ;
set Ts[41]:=
2_3_4 2_19_20 3_1_2 3_5_6 4_1_2 4_7_8 4_13_14 5_5_6 5_13_14 ;
set Ts[42]:=
2_7_8 4_3_4 4_7_8 5_19_20 ;
set Ts[43]:=
1_3_4 1_11_12 1_17_18 2_3_4 2_19_20 3_13_14 3_15_16 4_1_2 4_13_14 5_3_4 5_5_6 5_13_14 5_17_18 ;
set Ts[44]:=
1_9_10 1_15_16 2_15_16 3_5_6 3_11_12 3_19_20 4_13_14 4_15_16 5_11_12 5_15_16 ;
set Ts[45]:=
2_13_14 4_5_6 4_9_10 5_3_4 5_9_10 ;
set Ts[46]:=
1_3_4 1_5_6 1_7_8 2_5_6 2_7_8 2_9_10 2_15_16 3_17_18 4_5_6 4_7_8 4_17_18 5_7_8 ;
set Ts[47]:=
1_7_8 1_15_16 2_11_12 2_17_18 2_19_20 3_5_6 3_17_18 4_11_12 5_11_12 5_13_14 5_17_18 5_19_20 ;
set Ts[48]:=
1_5_6 2_5_6 2_19_20 3_11_12 5_9_10 5_19_20 ;
set Ts[49]:=
1_11_12 1_13_14 1_15_16 1_17_18 1_19_20 2_7_8 2_9_10 3_3_4 3_5_6 3_17_18 4_7_8 4_9_10 4_17_18 5_13_14 ;
set Ts[50]:=
2_3_4 2_13_14 3_9_10 4_3_4 4_15_16 5_3_4 5_7_8 5_9_10 5_19_20 ;
set Ts[51]:=
2_1_2 2_7_8 2_9_10 2_11_12 3_11_12 4_3_4 4_5_6 4_7_8 4_11_12 5_3_4 5_7_8 5_11_12 5_19_20 ;
set Ts[52]:=
1_1_2 1_7_8 1_11_12 1_13_14 2_7_8 2_9_10 2_11_12 3_1_2 5_11_12 5_15_16 ;
set Ts[53]:=
1_11_12 1_13_14 2_9_10 2_15_16 3_5_6 4_19_20 5_13_14 ;
set Ts[54]:=
2_5_6 3_1_2 3_3_4 3_5_6 3_7_8 3_19_20 5_1_2 5_11_12 5_19_20 ;
set Ts[55]:=
2_17_18 3_3_4 3_7_8 4_3_4 4_19_20 5_1_2 ;
set Ts[56]:=
1_3_4 1_15_16 2_1_2 2_5_6 2_17_18 3_15_16 3_17_18 5_3_4 ;
set Ts[57]:=
1_11_12 2_7_8 3_7_8 ;
set Ts[58]:=
1_5_6 1_9_10 2_3_4 2_5_6 2_13_14 2_15_16 3_7_8 3_17_18 4_1_2 4_15_16 4_19_20 5_5_6 ;
set Ts[59]:=
1_15_16 2_3_4 2_11_12 2_15_16 3_3_4 3_7_8 4_11_12 4_15_16 5_3_4 5_11_12 ;
set Ts[60]:=
1_17_18 2_3_4 3_15_16 4_7_8 4_19_20 ;
set Ts[61]:=
2_11_12 5_13_14 5_15_16 ;
set Ts[62]:=
1_7_8 2_1_2 3_3_4 3_17_18 4_7_8 4_13_14 4_15_16 4_17_18 4_19_20 5_5_6 5_7_8 5_13_14 5_15_16 5_17_18 ;
set Ts[63]:=
1_9_10 1_17_18 5_15_16 ;
set Ts[64]:=
1_3_4 2_1_2 2_5_6 2_11_12 2_19_20 3_3_4 3_7_8 3_19_20 4_1_2 4_9_10 4_11_12 4_17_18 5_1_2 5_3_4 5_15_16 ;
set Ts[65]:=
2_5_6 2_15_16 2_19_20 3_7_8 3_9_10 5_11_12 ;
set Ts[66]:=
1_1_2 1_5_6 1_11_12 5_13_14 ;
set Ts[67]:=
1_13_14 2_1_2 2_19_20 3_7_8 3_19_20 4_7_8 5_1_2 5_15_16 ;
set Ts[68]:=
1_9_10 1_11_12 1_13_14 2_17_18 4_3_4 4_13_14 4_17_18 5_19_20 ;
set Ts[69]:=
1_5_6 1_17_18 1_19_20 2_17_18 3_1_2 3_9_10 4_9_10 5_7_8 5_11_12 5_17_18 5_19_20 ;
set Ts[70]:=
2_9_10 3_1_2 4_5_6 5_3_4 5_11_12 5_15_16 ;
set Ts[71]:=
2_5_6 3_19_20 4_1_2 ;
set Ts[72]:=
1_5_6 1_19_20 2_7_8 3_1_2 3_9_10 3_11_12 3_15_16 4_15_16 5_9_10 ;
set Ts[73]:=
2_9_10 3_17_18 4_13_14 ;
set Ts[74]:=
2_5_6 2_11_12 2_17_18 3_11_12 3_15_16 3_17_18 4_3_4 4_5_6 5_5_6 ;
set Ts[75]:=
1_1_2 1_13_14 1_15_16 2_5_6 2_17_18 3_1_2 3_13_14 4_17_18 5_3_4 5_13_14 5_15_16 ;
set Ts[76]:=
1_1_2 1_11_12 1_15_16 2_3_4 5_1_2 ;
set Ts[77]:=
1_15_16 2_13_14 3_9_10 3_17_18 4_3_4 4_7_8 5_9_10 5_11_12 ;
set Ts[78]:=
1_13_14 1_15_16 1_19_20 2_5_6 2_7_8 2_11_12 2_13_14 2_15_16 2_17_18 3_1_2 3_11_12 4_13_14 4_15_16 5_9_10 5_17_18 ;
set Ts[79]:=
2_5_6 2_9_10 2_13_14 2_15_16 2_17_18 3_9_10 3_19_20 4_9_10 4_11_12 5_13_14 5_17_18 5_19_20 ;
set Ts[80]:=
2_1_2 2_11_12 3_15_16 3_17_18 4_1_2 4_11_12 4_15_16 5_11_12 ;

param rho:=
1 20
2 20
3 20
4 20
5 20
6 20
7 20
8 20
9 20
10 20
11 20
12 20
13 20
14 20
15 20
16 20
17 20
18 20
19 20
20 20
;

param sigma_class:=
1 25
2 25
3 25
4 25
5 25
6 25
7 25
8 25
9 25
10 25
11 25
12 25
13 25
14 25
15 25
16 25
17 25
18 25
19 25
20 25
21 25
22 25
23 25
24 25
25 25
26 25
27 25
28 25
29 25
30 25
31 25
32 25
33 25
34 25
35 25
36 25
37 25
38 25
39 25
40 25
;

param kmin:=
1 4
2 5
3 3
4 3
5 2
6 5
7 2
8 2
9 4
10 3
11 2
12 5
13 4
14 5
15 2
16 2
17 3
18 3
19 4
20 4
21 4
22 3
23 3
24 4
25 3
26 2
27 4
28 4
29 3
30 2
31 2
32 4
33 4
34 3
35 3
36 3
37 5
38 4
39 5
40 3
41 2
42 4
43 3
44 2
45 5
46 5
47 2
48 5
49 3
50 3
51 3
52 2
53 4
54 3
55 4
56 3
57 4
58 4
59 4
60 3
61 2
62 2
63 3
64 2
65 2
66 5
67 5
68 2
69 3
70 4
71 2
72 4
73 2
74 2
75 4
76 5
77 3
78 4
79 2
80 5
;

param kmax:=
1 8
2 10
3 7
4 6
5 4
6 10
7 4
8 4
9 9
10 7
11 4
12 10
13 9
14 10
15 5
16 4
17 6
18 6
19 9
20 9
21 9
22 7
23 7
24 8
25 7
26 4
27 9
28 8
29 6
30 5
31 5
32 8
33 8
34 7
35 6
36 7
37 10
38 8
39 10
40 7
41 4
42 8
43 7
44 4
45 10
46 10
47 4
48 10
49 7
50 7
51 6
52 4
53 8
54 7
55 9
56 6
57 9
58 9
59 9
60 7
61 4
62 4
63 7
64 4
65 4
66 10
67 10
68 4
69 6
70 8
71 4
72 8
73 4
74 4
75 8
76 10
77 6
78 8
79 5
80 10
;

